************************************************************************
file with basedata            : c1538_.bas
initial value random generator: 1587778108
************************************************************************
projects                      :  1
jobs (incl. supersource/sink ):  18
horizon                       :  126
RESOURCES
  - renewable                 :  2   R
  - nonrenewable              :  2   N
  - doubly constrained        :  0   D
************************************************************************
PROJECT INFORMATION:
pronr.  #jobs rel.date duedate tardcost  MPM-Time
    1     16      0       22       13       22
************************************************************************
PRECEDENCE RELATIONS:
jobnr.    #modes  #successors   successors
   1        1          3           2   3   4
   2        3          2           6  12
   3        3          3           5   8  17
   4        3          3           7  14  17
   5        3          1          11
   6        3          1          17
   7        3          2           9  11
   8        3          1          12
   9        3          2          10  16
  10        3          1          13
  11        3          1          15
  12        3          2          14  16
  13        3          1          15
  14        3          1          15
  15        3          1          18
  16        3          1          18
  17        3          1          18
  18        1          0        
************************************************************************
REQUESTS/DURATIONS:
jobnr. mode duration  R 1  R 2  N 1  N 2
------------------------------------------------------------------------
  1      1     0       0    0    0    0
  2      1     1       7    8    8   10
         2     8       7    6    8    7
         3     9       6    4    3    6
  3      1     1      10    9   10    6
         2     3       9    9   10    6
         3     6       8    8    9    4
  4      1     3       9    4    9    9
         2     6       8    3    9    7
         3     8       7    3    9    2
  5      1     5      10    6   10    8
         2     7       9    5    6    6
         3     9       9    4    3    4
  6      1     3       8    8    3    8
         2     5       7    5    2    8
         3     6       6    5    1    7
  7      1     4       7    8    9    7
         2     8       3    2    7    6
         3     8       4    1    3    5
  8      1     4       9    4    6    7
         2     8       6    4    6    7
         3     8       8    3    5    5
  9      1     3       8    7    4    1
         2     4       6    6    4    1
         3     6       6    6    3    1
 10      1     4       5    9    5    7
         2     4       7    6    3    6
         3     5       5    2    3    5
 11      1     4      10    6   10    6
         2     8       8    4    9    6
         3    10       5    2    8    6
 12      1     1       5    4    8    5
         2     8       5    4    7    4
         3    10       4    3    6    4
 13      1     5       8    8    5    9
         2     8       8    8    4    6
         3    10       7    7    4    5
 14      1     3       7    6    3    4
         2     7       6    4    3    4
         3    10       6    4    2    4
 15      1     3       9    8   10    8
         2     4       7    6    8    5
         3     5       7    5    4    5
 16      1     3       9    7    4    9
         2     8       9    7    3    6
         3     9       9    6    3    5
 17      1     2       3    8   10    9
         2     2       3    9    8    9
         3     7       3    2    3    3
 18      1     0       0    0    0    0
************************************************************************
RESOURCEAVAILABILITIES:
  R 1  R 2  N 1  N 2
   23   18   80   82
************************************************************************
